int NumberPatients = 197
int NumberOfRooms = 6
int NumberSurgeons = 8
int NumberOfDays = 6
Duration = [105,205,60,58,100,94,98,60,93,66,93,117,34,40,93,85,103,105,66,66,130,72,103,103,114,93,166,103,103,85,66,119,66,103,93,60,166,85,88,53,166,66,78,103,85,87,78,103,60,53,159,103,103,60,53,72,166,159,60,66,66,263,93,103,66,66,119,119,39,66,227,85,105,105,85,130,103,101,78,119,119,119,119,66,72,93,66,60,227,114,159,68,60,53,60,166,105,60,78,227,64,103,53,119,119,119,119,85,103,53,66,72,66,58,35,68,227,105,130,68,53,103,68,93,105,119,119,119,119,119,119,119,119,159,97,33,66,28,60,93,93,93,66,103,119,166,66,119,119,119,119,72,66,78,60,66,71,114,98,66,103,145,98,76,118,85,114,64,53,50,130,60,112,120,92,53,119,119,119,244,119,119,119,119,119,119,119,119,72,130,66,112,72,53,249,168,66];
Priority = [0,0,0,0,0,0,0,0,0,0,0,0,0,0,0,0,0,0,0,0,0,0,0,0,0,0,1,0,0,0,0,0,0,0,0,0,0,0,0,0,0,0,0,0,0,0,0,0,0,0,0,0,0,0,0,0,0,0,0,0,0,0,0,0,0,0,0,0,0,0,0,0,0,0,0,0,0,0,0,0,0,0,0,0,0,0,0,0,0,0,0,0,0,0,0,0,0,0,0,0,0,0,0,0,0,0,0,0,0,0,0,0,0,0,0,0,0,0,0,0,0,0,0,0,0,0,0,0,0,0,0,0,0,0,0,0,0,0,0,0,0,0,0,0,0,0,0,0,0,0,0,0,0,0,0,0,0,0,0,0,0,0,0,0,0,0,0,0,0,0,0,0,1,0,1,0,0,0,0,1,0,0,0,0,0,1,0,0,0,0,0,0,0,0,1,0,0];
Waiting = [207,211,256,218,358,267,198,269,204,204,274,281,225,288,190,190,190,190,190,186,183,184,183,183,176,176,175,169,169,169,169,171,162,161,155,155,155,155,155,155,155,155,155,155,155,151,148,148,148,148,148,148,148,148,148,141,141,141,141,141,141,141,141,141,141,141,135,135,134,134,134,134,128,127,127,127,127,127,127,121,121,121,121,120,120,120,120,120,120,120,120,120,120,120,116,116,116,116,113,113,113,113,113,107,107,107,107,106,106,106,106,106,106,102,99,99,98,95,95,92,85,85,85,84,85,79,79,79,79,79,79,79,79,78,78,78,78,78,78,78,78,78,78,74,72,71,71,66,65,65,65,64,64,63,60,57,57,57,57,57,57,56,50,50,50,50,50,50,50,46,45,43,43,43,43,39,37,37,37,37,37,37,37,37,37,37,37,37,36,36,36,36,36,36,32,22,22];

Surgeon = [1,2,2,3,4,1,1,1,5,5,2,2,1,1,5,5,4,2,2,5,6,1,1,4,2,5,1,4,4,4,3,6,2,1,3,3,2,4,4,5,5,5,4,5,4,1,2,3,1,3,6,2,2,1,5,6,2,2,6,4,5,5,4,5,4,5,6,6,6,3,2,4,1,1,6,3,6,4,4,5,5,5,5,6,3,6,6,6,3,2,2,6,1,4,1,1,1,1,6,6,6,6,4,6,6,6,6,1,6,2,4,4,4,7,2,5,6,1,1,5,4,4,7,6,3,5,5,5,5,5,5,5,5,2,3,6,2,3,3,5,5,5,4,1,6,1,4,2,5,5,5,6,4,6,6,2,6,2,8,2,4,6,8,8,8,8,8,8,5,2,1,2,8,8,2,8,6,6,6,5,5,5,5,5,5,5,5,5,3,5,3,8,3,4,5,2,4];
BlockAvailability = [[[0,1],[0,0],[0,0],[0,0],[0,0],[0,0]],[[0,0],[0,1],[1,0],[0,0],[0,0],[0,0]],[[0,0],[0,0],[0,0],[1,1],[0,0],[0,0]],[[0,0],[0,0],[0,0],[0,0],[0,0],[0,0]],[[0,0],[0,0],[0,0],[0,0],[1,0],[1,0]],[[0,0],[0,0],[0,0],[0,0],[0,0],[0,0]]];
SurgeonAvailability = [[[1,1],[1,1],[1,1],[1,1],[1,1],[1,1]],[[1,1],[1,1],[1,1],[1,1],[1,1],[1,1]],[[1,1],[1,1],[1,1],[1,1],[1,1],[1,1]],[[1,1],[1,1],[1,1],[1,1],[1,1],[1,1]],[[1,1],[1,1],[1,1],[1,1],[1,1],[1,1]],[[1,1],[1,1],[1,1],[1,1],[1,1],[1,1]],[[1,1],[1,1],[1,1],[1,1],[1,1],[1,1]],[[1,1],[1,1],[1,1],[1,1],[1,1],[1,1]]];
